; Label array extracted from bank-full.csv
; Encoding: yes -> 1, no -> 0

(declare-const O (Array Int Int))
(define-fun m () Int 100)

(assert (= (select O 0) 0))
(assert (= (select O 1) 0))
(assert (= (select O 2) 0))
(assert (= (select O 3) 0))
(assert (= (select O 4) 0))
(assert (= (select O 5) 0))
(assert (= (select O 6) 0))
(assert (= (select O 7) 0))
(assert (= (select O 8) 0))
(assert (= (select O 9) 0))
(assert (= (select O 10) 0))
(assert (= (select O 11) 0))
(assert (= (select O 12) 0))
(assert (= (select O 13) 0))
(assert (= (select O 14) 0))
(assert (= (select O 15) 0))
(assert (= (select O 16) 0))
(assert (= (select O 17) 0))
(assert (= (select O 18) 0))
(assert (= (select O 19) 0))
(assert (= (select O 20) 0))
(assert (= (select O 21) 0))
(assert (= (select O 22) 0))
(assert (= (select O 23) 0))
(assert (= (select O 24) 0))
(assert (= (select O 25) 0))
(assert (= (select O 26) 0))
(assert (= (select O 27) 0))
(assert (= (select O 28) 0))
(assert (= (select O 29) 0))
(assert (= (select O 30) 0))
(assert (= (select O 31) 0))
(assert (= (select O 32) 0))
(assert (= (select O 33) 0))
(assert (= (select O 34) 0))
(assert (= (select O 35) 0))
(assert (= (select O 36) 0))
(assert (= (select O 37) 0))
(assert (= (select O 38) 0))
(assert (= (select O 39) 0))
(assert (= (select O 40) 0))
(assert (= (select O 41) 0))
(assert (= (select O 42) 0))
(assert (= (select O 43) 0))
(assert (= (select O 44) 0))
(assert (= (select O 45) 0))
(assert (= (select O 46) 0))
(assert (= (select O 47) 0))
(assert (= (select O 48) 0))
(assert (= (select O 49) 0))
(assert (= (select O 50) 0))
(assert (= (select O 51) 0))
(assert (= (select O 52) 0))
(assert (= (select O 53) 0))
(assert (= (select O 54) 0))
(assert (= (select O 55) 0))
(assert (= (select O 56) 0))
(assert (= (select O 57) 0))
(assert (= (select O 58) 0))
(assert (= (select O 59) 0))
(assert (= (select O 60) 0))
(assert (= (select O 61) 0))
(assert (= (select O 62) 0))
(assert (= (select O 63) 0))
(assert (= (select O 64) 0))
(assert (= (select O 65) 0))
(assert (= (select O 66) 0))
(assert (= (select O 67) 0))
(assert (= (select O 68) 0))
(assert (= (select O 69) 0))
(assert (= (select O 70) 0))
(assert (= (select O 71) 0))
(assert (= (select O 72) 0))
(assert (= (select O 73) 0))
(assert (= (select O 74) 0))
(assert (= (select O 75) 0))
(assert (= (select O 76) 0))
(assert (= (select O 77) 0))
(assert (= (select O 78) 0))
(assert (= (select O 79) 0))
(assert (= (select O 80) 0))
(assert (= (select O 81) 0))
(assert (= (select O 82) 0))
(assert (= (select O 83) 1))
(assert (= (select O 84) 0))
(assert (= (select O 85) 0))
(assert (= (select O 86) 1))
(assert (= (select O 87) 1))
(assert (= (select O 88) 0))
(assert (= (select O 89) 0))
(assert (= (select O 90) 0))
(assert (= (select O 91) 0))
(assert (= (select O 92) 0))
(assert (= (select O 93) 0))
(assert (= (select O 94) 0))
(assert (= (select O 95) 0))
(assert (= (select O 96) 0))
(assert (= (select O 97) 0))
(assert (= (select O 98) 0))
(assert (= (select O 99) 0))

; label set: {0, 1}

; ===== auxiliary lemma: global balancedness =====

(define-fun threshold () Int 25)

(declare-const c0 Int)
(declare-const c1 Int)

(define-fun sum0 () Int
  (+
    (ite (= (select O 0) 0) 1 0)
    (ite (= (select O 1) 0) 1 0)
    (ite (= (select O 2) 0) 1 0)
    (ite (= (select O 3) 0) 1 0)
    (ite (= (select O 4) 0) 1 0)
    (ite (= (select O 5) 0) 1 0)
    (ite (= (select O 6) 0) 1 0)
    (ite (= (select O 7) 0) 1 0)
    (ite (= (select O 8) 0) 1 0)
    (ite (= (select O 9) 0) 1 0)
    (ite (= (select O 10) 0) 1 0)
    (ite (= (select O 11) 0) 1 0)
    (ite (= (select O 12) 0) 1 0)
    (ite (= (select O 13) 0) 1 0)
    (ite (= (select O 14) 0) 1 0)
    (ite (= (select O 15) 0) 1 0)
    (ite (= (select O 16) 0) 1 0)
    (ite (= (select O 17) 0) 1 0)
    (ite (= (select O 18) 0) 1 0)
    (ite (= (select O 19) 0) 1 0)
    (ite (= (select O 20) 0) 1 0)
    (ite (= (select O 21) 0) 1 0)
    (ite (= (select O 22) 0) 1 0)
    (ite (= (select O 23) 0) 1 0)
    (ite (= (select O 24) 0) 1 0)
    (ite (= (select O 25) 0) 1 0)
    (ite (= (select O 26) 0) 1 0)
    (ite (= (select O 27) 0) 1 0)
    (ite (= (select O 28) 0) 1 0)
    (ite (= (select O 29) 0) 1 0)
    (ite (= (select O 30) 0) 1 0)
    (ite (= (select O 31) 0) 1 0)
    (ite (= (select O 32) 0) 1 0)
    (ite (= (select O 33) 0) 1 0)
    (ite (= (select O 34) 0) 1 0)
    (ite (= (select O 35) 0) 1 0)
    (ite (= (select O 36) 0) 1 0)
    (ite (= (select O 37) 0) 1 0)
    (ite (= (select O 38) 0) 1 0)
    (ite (= (select O 39) 0) 1 0)
    (ite (= (select O 40) 0) 1 0)
    (ite (= (select O 41) 0) 1 0)
    (ite (= (select O 42) 0) 1 0)
    (ite (= (select O 43) 0) 1 0)
    (ite (= (select O 44) 0) 1 0)
    (ite (= (select O 45) 0) 1 0)
    (ite (= (select O 46) 0) 1 0)
    (ite (= (select O 47) 0) 1 0)
    (ite (= (select O 48) 0) 1 0)
    (ite (= (select O 49) 0) 1 0)
    (ite (= (select O 50) 0) 1 0)
    (ite (= (select O 51) 0) 1 0)
    (ite (= (select O 52) 0) 1 0)
    (ite (= (select O 53) 0) 1 0)
    (ite (= (select O 54) 0) 1 0)
    (ite (= (select O 55) 0) 1 0)
    (ite (= (select O 56) 0) 1 0)
    (ite (= (select O 57) 0) 1 0)
    (ite (= (select O 58) 0) 1 0)
    (ite (= (select O 59) 0) 1 0)
    (ite (= (select O 60) 0) 1 0)
    (ite (= (select O 61) 0) 1 0)
    (ite (= (select O 62) 0) 1 0)
    (ite (= (select O 63) 0) 1 0)
    (ite (= (select O 64) 0) 1 0)
    (ite (= (select O 65) 0) 1 0)
    (ite (= (select O 66) 0) 1 0)
    (ite (= (select O 67) 0) 1 0)
    (ite (= (select O 68) 0) 1 0)
    (ite (= (select O 69) 0) 1 0)
    (ite (= (select O 70) 0) 1 0)
    (ite (= (select O 71) 0) 1 0)
    (ite (= (select O 72) 0) 1 0)
    (ite (= (select O 73) 0) 1 0)
    (ite (= (select O 74) 0) 1 0)
    (ite (= (select O 75) 0) 1 0)
    (ite (= (select O 76) 0) 1 0)
    (ite (= (select O 77) 0) 1 0)
    (ite (= (select O 78) 0) 1 0)
    (ite (= (select O 79) 0) 1 0)
    (ite (= (select O 80) 0) 1 0)
    (ite (= (select O 81) 0) 1 0)
    (ite (= (select O 82) 0) 1 0)
    (ite (= (select O 83) 0) 1 0)
    (ite (= (select O 84) 0) 1 0)
    (ite (= (select O 85) 0) 1 0)
    (ite (= (select O 86) 0) 1 0)
    (ite (= (select O 87) 0) 1 0)
    (ite (= (select O 88) 0) 1 0)
    (ite (= (select O 89) 0) 1 0)
    (ite (= (select O 90) 0) 1 0)
    (ite (= (select O 91) 0) 1 0)
    (ite (= (select O 92) 0) 1 0)
    (ite (= (select O 93) 0) 1 0)
    (ite (= (select O 94) 0) 1 0)
    (ite (= (select O 95) 0) 1 0)
    (ite (= (select O 96) 0) 1 0)
    (ite (= (select O 97) 0) 1 0)
    (ite (= (select O 98) 0) 1 0)
    (ite (= (select O 99) 0) 1 0)
  )
)

(define-fun sum1 () Int
  (+
    (ite (= (select O 0) 1) 1 0)
    (ite (= (select O 1) 1) 1 0)
    (ite (= (select O 2) 1) 1 0)
    (ite (= (select O 3) 1) 1 0)
    (ite (= (select O 4) 1) 1 0)
    (ite (= (select O 5) 1) 1 0)
    (ite (= (select O 6) 1) 1 0)
    (ite (= (select O 7) 1) 1 0)
    (ite (= (select O 8) 1) 1 0)
    (ite (= (select O 9) 1) 1 0)
    (ite (= (select O 10) 1) 1 0)
    (ite (= (select O 11) 1) 1 0)
    (ite (= (select O 12) 1) 1 0)
    (ite (= (select O 13) 1) 1 0)
    (ite (= (select O 14) 1) 1 0)
    (ite (= (select O 15) 1) 1 0)
    (ite (= (select O 16) 1) 1 0)
    (ite (= (select O 17) 1) 1 0)
    (ite (= (select O 18) 1) 1 0)
    (ite (= (select O 19) 1) 1 0)
    (ite (= (select O 20) 1) 1 0)
    (ite (= (select O 21) 1) 1 0)
    (ite (= (select O 22) 1) 1 0)
    (ite (= (select O 23) 1) 1 0)
    (ite (= (select O 24) 1) 1 0)
    (ite (= (select O 25) 1) 1 0)
    (ite (= (select O 26) 1) 1 0)
    (ite (= (select O 27) 1) 1 0)
    (ite (= (select O 28) 1) 1 0)
    (ite (= (select O 29) 1) 1 0)
    (ite (= (select O 30) 1) 1 0)
    (ite (= (select O 31) 1) 1 0)
    (ite (= (select O 32) 1) 1 0)
    (ite (= (select O 33) 1) 1 0)
    (ite (= (select O 34) 1) 1 0)
    (ite (= (select O 35) 1) 1 0)
    (ite (= (select O 36) 1) 1 0)
    (ite (= (select O 37) 1) 1 0)
    (ite (= (select O 38) 1) 1 0)
    (ite (= (select O 39) 1) 1 0)
    (ite (= (select O 40) 1) 1 0)
    (ite (= (select O 41) 1) 1 0)
    (ite (= (select O 42) 1) 1 0)
    (ite (= (select O 43) 1) 1 0)
    (ite (= (select O 44) 1) 1 0)
    (ite (= (select O 45) 1) 1 0)
    (ite (= (select O 46) 1) 1 0)
    (ite (= (select O 47) 1) 1 0)
    (ite (= (select O 48) 1) 1 0)
    (ite (= (select O 49) 1) 1 0)
    (ite (= (select O 50) 1) 1 0)
    (ite (= (select O 51) 1) 1 0)
    (ite (= (select O 52) 1) 1 0)
    (ite (= (select O 53) 1) 1 0)
    (ite (= (select O 54) 1) 1 0)
    (ite (= (select O 55) 1) 1 0)
    (ite (= (select O 56) 1) 1 0)
    (ite (= (select O 57) 1) 1 0)
    (ite (= (select O 58) 1) 1 0)
    (ite (= (select O 59) 1) 1 0)
    (ite (= (select O 60) 1) 1 0)
    (ite (= (select O 61) 1) 1 0)
    (ite (= (select O 62) 1) 1 0)
    (ite (= (select O 63) 1) 1 0)
    (ite (= (select O 64) 1) 1 0)
    (ite (= (select O 65) 1) 1 0)
    (ite (= (select O 66) 1) 1 0)
    (ite (= (select O 67) 1) 1 0)
    (ite (= (select O 68) 1) 1 0)
    (ite (= (select O 69) 1) 1 0)
    (ite (= (select O 70) 1) 1 0)
    (ite (= (select O 71) 1) 1 0)
    (ite (= (select O 72) 1) 1 0)
    (ite (= (select O 73) 1) 1 0)
    (ite (= (select O 74) 1) 1 0)
    (ite (= (select O 75) 1) 1 0)
    (ite (= (select O 76) 1) 1 0)
    (ite (= (select O 77) 1) 1 0)
    (ite (= (select O 78) 1) 1 0)
    (ite (= (select O 79) 1) 1 0)
    (ite (= (select O 80) 1) 1 0)
    (ite (= (select O 81) 1) 1 0)
    (ite (= (select O 82) 1) 1 0)
    (ite (= (select O 83) 1) 1 0)
    (ite (= (select O 84) 1) 1 0)
    (ite (= (select O 85) 1) 1 0)
    (ite (= (select O 86) 1) 1 0)
    (ite (= (select O 87) 1) 1 0)
    (ite (= (select O 88) 1) 1 0)
    (ite (= (select O 89) 1) 1 0)
    (ite (= (select O 90) 1) 1 0)
    (ite (= (select O 91) 1) 1 0)
    (ite (= (select O 92) 1) 1 0)
    (ite (= (select O 93) 1) 1 0)
    (ite (= (select O 94) 1) 1 0)
    (ite (= (select O 95) 1) 1 0)
    (ite (= (select O 96) 1) 1 0)
    (ite (= (select O 97) 1) 1 0)
    (ite (= (select O 98) 1) 1 0)
    (ite (= (select O 99) 1) 1 0)
  )
)

(assert (= c0 sum0))
(assert (= c1 sum1))

(assert (and (<= 0 c0) (<= c0 m)))
(assert (and (<= 0 c1) (<= c1 m)))

(assert
  (and
    (or (= (select O 0) 0) (= (select O 0) 1))
    (or (= (select O 1) 0) (= (select O 1) 1))
    (or (= (select O 2) 0) (= (select O 2) 1))
    (or (= (select O 3) 0) (= (select O 3) 1))
    (or (= (select O 4) 0) (= (select O 4) 1))
    (or (= (select O 5) 0) (= (select O 5) 1))
    (or (= (select O 6) 0) (= (select O 6) 1))
    (or (= (select O 7) 0) (= (select O 7) 1))
    (or (= (select O 8) 0) (= (select O 8) 1))
    (or (= (select O 9) 0) (= (select O 9) 1))
    (or (= (select O 10) 0) (= (select O 10) 1))
    (or (= (select O 11) 0) (= (select O 11) 1))
    (or (= (select O 12) 0) (= (select O 12) 1))
    (or (= (select O 13) 0) (= (select O 13) 1))
    (or (= (select O 14) 0) (= (select O 14) 1))
    (or (= (select O 15) 0) (= (select O 15) 1))
    (or (= (select O 16) 0) (= (select O 16) 1))
    (or (= (select O 17) 0) (= (select O 17) 1))
    (or (= (select O 18) 0) (= (select O 18) 1))
    (or (= (select O 19) 0) (= (select O 19) 1))
    (or (= (select O 20) 0) (= (select O 20) 1))
    (or (= (select O 21) 0) (= (select O 21) 1))
    (or (= (select O 22) 0) (= (select O 22) 1))
    (or (= (select O 23) 0) (= (select O 23) 1))
    (or (= (select O 24) 0) (= (select O 24) 1))
    (or (= (select O 25) 0) (= (select O 25) 1))
    (or (= (select O 26) 0) (= (select O 26) 1))
    (or (= (select O 27) 0) (= (select O 27) 1))
    (or (= (select O 28) 0) (= (select O 28) 1))
    (or (= (select O 29) 0) (= (select O 29) 1))
    (or (= (select O 30) 0) (= (select O 30) 1))
    (or (= (select O 31) 0) (= (select O 31) 1))
    (or (= (select O 32) 0) (= (select O 32) 1))
    (or (= (select O 33) 0) (= (select O 33) 1))
    (or (= (select O 34) 0) (= (select O 34) 1))
    (or (= (select O 35) 0) (= (select O 35) 1))
    (or (= (select O 36) 0) (= (select O 36) 1))
    (or (= (select O 37) 0) (= (select O 37) 1))
    (or (= (select O 38) 0) (= (select O 38) 1))
    (or (= (select O 39) 0) (= (select O 39) 1))
    (or (= (select O 40) 0) (= (select O 40) 1))
    (or (= (select O 41) 0) (= (select O 41) 1))
    (or (= (select O 42) 0) (= (select O 42) 1))
    (or (= (select O 43) 0) (= (select O 43) 1))
    (or (= (select O 44) 0) (= (select O 44) 1))
    (or (= (select O 45) 0) (= (select O 45) 1))
    (or (= (select O 46) 0) (= (select O 46) 1))
    (or (= (select O 47) 0) (= (select O 47) 1))
    (or (= (select O 48) 0) (= (select O 48) 1))
    (or (= (select O 49) 0) (= (select O 49) 1))
    (or (= (select O 50) 0) (= (select O 50) 1))
    (or (= (select O 51) 0) (= (select O 51) 1))
    (or (= (select O 52) 0) (= (select O 52) 1))
    (or (= (select O 53) 0) (= (select O 53) 1))
    (or (= (select O 54) 0) (= (select O 54) 1))
    (or (= (select O 55) 0) (= (select O 55) 1))
    (or (= (select O 56) 0) (= (select O 56) 1))
    (or (= (select O 57) 0) (= (select O 57) 1))
    (or (= (select O 58) 0) (= (select O 58) 1))
    (or (= (select O 59) 0) (= (select O 59) 1))
    (or (= (select O 60) 0) (= (select O 60) 1))
    (or (= (select O 61) 0) (= (select O 61) 1))
    (or (= (select O 62) 0) (= (select O 62) 1))
    (or (= (select O 63) 0) (= (select O 63) 1))
    (or (= (select O 64) 0) (= (select O 64) 1))
    (or (= (select O 65) 0) (= (select O 65) 1))
    (or (= (select O 66) 0) (= (select O 66) 1))
    (or (= (select O 67) 0) (= (select O 67) 1))
    (or (= (select O 68) 0) (= (select O 68) 1))
    (or (= (select O 69) 0) (= (select O 69) 1))
    (or (= (select O 70) 0) (= (select O 70) 1))
    (or (= (select O 71) 0) (= (select O 71) 1))
    (or (= (select O 72) 0) (= (select O 72) 1))
    (or (= (select O 73) 0) (= (select O 73) 1))
    (or (= (select O 74) 0) (= (select O 74) 1))
    (or (= (select O 75) 0) (= (select O 75) 1))
    (or (= (select O 76) 0) (= (select O 76) 1))
    (or (= (select O 77) 0) (= (select O 77) 1))
    (or (= (select O 78) 0) (= (select O 78) 1))
    (or (= (select O 79) 0) (= (select O 79) 1))
    (or (= (select O 80) 0) (= (select O 80) 1))
    (or (= (select O 81) 0) (= (select O 81) 1))
    (or (= (select O 82) 0) (= (select O 82) 1))
    (or (= (select O 83) 0) (= (select O 83) 1))
    (or (= (select O 84) 0) (= (select O 84) 1))
    (or (= (select O 85) 0) (= (select O 85) 1))
    (or (= (select O 86) 0) (= (select O 86) 1))
    (or (= (select O 87) 0) (= (select O 87) 1))
    (or (= (select O 88) 0) (= (select O 88) 1))
    (or (= (select O 89) 0) (= (select O 89) 1))
    (or (= (select O 90) 0) (= (select O 90) 1))
    (or (= (select O 91) 0) (= (select O 91) 1))
    (or (= (select O 92) 0) (= (select O 92) 1))
    (or (= (select O 93) 0) (= (select O 93) 1))
    (or (= (select O 94) 0) (= (select O 94) 1))
    (or (= (select O 95) 0) (= (select O 95) 1))
    (or (= (select O 96) 0) (= (select O 96) 1))
    (or (= (select O 97) 0) (= (select O 97) 1))
    (or (= (select O 98) 0) (= (select O 98) 1))
    (or (= (select O 99) 0) (= (select O 99) 1))
  )
)

(assert (= (+ c0 c1) m))

(assert (and (>= c0 threshold) (>= c1 threshold)))
(check-sat)
; ===============================================
